p edge 18 74
e 1 2
e 2 6
e 2 3
e 2 8
e 2 12
e 2 15
e 2 1
e 3 8
e 3 12
e 3 15
e 3 4
e 3 5
e 3 2
e 4 5
e 4 16
e 4 3
e 5 7
e 5 13
e 5 14
e 5 4
e 5 3
e 6 2
e 7 11
e 7 10
e 7 13
e 7 14
e 7 5
e 8 12
e 8 15
e 8 9
e 8 10
e 8 11
e 8 3
e 8 2
e 9 10
e 9 11
e 9 8
e 10 13
e 10 11
e 10 18
e 10 9
e 10 8
e 10 7
e 11 13
e 11 16
e 11 10
e 11 9
e 11 8
e 11 7
e 12 15
e 12 13
e 12 8
e 12 3
e 12 2
e 13 16
e 13 14
e 13 12
e 13 11
e 13 10
e 13 7
e 13 5
e 14 13
e 14 7
e 14 5
e 15 12
e 15 8
e 15 3
e 15 2
e 16 17
e 16 13
e 16 11
e 16 4
e 17 16
e 18 10
